c Auto-generated by J. Le Maire and A. Talon
p cnf 10 38
-5 -9 6 0
2 8 -9 0
-10 8 8 0
-6 3 -4 0
5 3 8 0
-7 3 -6 0
1 10 -4 0
10 8 7 0
1 -2 1 0
5 1 3 0
6 -2 6 0
-7 -8 6 0
-3 -5 -6 0
-8 5 6 0
9 -8 10 0
-1 -10 -1 0
-2 -5 -7 0
1 -10 8 0
10 -4 -5 0
4 2 -7 0
5 9 -8 0
2 -9 6 0
9 3 -8 0
5 9 4 0
6 4 1 0
-10 -1 -1 0
4 4 -9 0
-8 -2 -6 0
3 -7 -1 0
7 -4 -5 0
-4 -9 1 0
-1 10 -2 0
-10 5 -9 0
2 -8 4 0
-6 9 3 0
-7 8 -1 0
-6 3 10 0
6 8 -3 0
